%%% static parameters %%%
timespan = 1;
Fact = [4];
Distr1 = [15];
Distr2 = [30];
Clients_N = [1000];
Demand_W = [15];
Lt0 = [4];
Lt1 = [4];
SS_ = [0.85];
DS_D = [8];
K = [200];
MA = [500];
%%% dynamic parameters %%%
lost_ratio_sales_ret_th = 0.4698820355124079;
lost_ratio_sales_ret_w = 73;
lost_ratio_sales_dis_th = 0.41665455575690946;
lost_ratio_sales_dis_w = 63;
lost_ratio_sales_fac_th = 0.46390312749581186;
lost_ratio_sales_fac_w = 35;
stock_customer_MA_mean_relative_th = 0.08929336617046946;
stock_customer_MA_mean_relative_w = 7;
stock_distributor_MA_mean_relative_th = 0.5516848823890392;
stock_distributor_MA_mean_relative_w = 77;
stock_retailer_MA_mean_relative_th = 0.6748172766912454;
stock_retailer_MA_mean_relative_w = 71;
stock_factory_MA_mean_relative_th = 0.10342197814141385;
stock_factory_MA_mean_relative_w = 89;
